c ! encoding i-pc 250
p cnf 639 1256
-251 0
251 -252 0
251 -253 0
251 -254 0
251 -255 0
251 -256 0
251 -257 0
-117 -259 0
258 -259 0
259 -260 0
161 -260 0
109 -262 0
261 -262 0
262 -263 0
-161 -263 0
260 263 -264 0
264 -265 0
205 -265 0
109 -266 0
117 -266 0
-161 -266 0
266 -267 0
-205 -267 0
265 267 -268 0
214 -269 0
180 -269 0
270 0
271 -272 0
272 -273 0
-180 -273 0
269 273 -274 0
-63 -275 0
55 -275 0
276 -277 0
277 -278 0
-55 -278 0
275 278 -279 0
280 -281 0
281 -282 0
5 -282 0
6 -283 0
-5 -283 0
282 283 -284 0
274 -285 0
279 -285 0
284 -285 0
-46 -285 0
285 -286 0
213 -286 0
-63 -287 0
-180 -287 0
287 -288 0
271 -288 0
288 -289 0
55 -289 0
274 -290 0
276 -290 0
290 -291 0
-55 -291 0
289 291 -292 0
-46 -293 0
280 -293 0
293 -294 0
5 -294 0
6 -296 0
295 -296 0
296 -297 0
-5 -297 0
294 297 -298 0
292 -299 0
298 -299 0
299 -300 0
-213 -300 0
286 300 -301 0
302 -303 0
303 -304 0
43 -304 0
-62 -305 0
-43 -305 0
304 305 -306 0
88 -307 0
-134 -307 0
268 -309 0
301 -309 0
306 -309 0
307 -309 0
308 -309 0
309 -310 0
198 -310 0
88 -311 0
-117 -311 0
205 -311 0
311 -312 0
308 -312 0
312 -313 0
258 -313 0
313 -314 0
161 -314 0
261 -315 0
315 -316 0
205 -316 0
117 -317 0
-205 -317 0
316 317 -318 0
109 -319 0
88 -319 0
258 -320 0
320 -321 0
-88 -321 0
319 321 -322 0
322 -323 0
203 -323 0
88 -324 0
109 -324 0
324 -325 0
-203 -325 0
323 325 -326 0
318 -327 0
326 -327 0
327 -328 0
-161 -328 0
314 328 -329 0
-43 -330 0
-46 -330 0
-62 -330 0
213 -330 0
329 -331 0
279 -331 0
284 -331 0
274 -331 0
330 -331 0
331 -333 0
332 -333 0
333 -334 0
-198 -334 0
310 334 -335 0
336 -337 0
337 -338 0
8 -338 0
82 -339 0
-8 -339 0
338 339 -340 0
335 -341 0
340 -341 0
341 -342 0
119 -342 0
8 -343 0
43 -343 0
88 -343 0
-134 -343 0
198 -343 0
-203 -343 0
336 -344 0
302 -344 0
268 -345 0
301 -345 0
343 -345 0
344 -345 0
345 -346 0
-119 -346 0
342 346 -347 0
239 -348 0
34 -348 0
349 -350 0
350 -351 0
-34 -351 0
348 351 -352 0
352 -354 0
353 -354 0
354 -356 0
355 -356 0
356 -357 0
200 -357 0
358 -359 0
359 -360 0
44 -360 0
-44 -361 0
360 361 -362 0
362 -363 0
-216 -363 0
363 -365 0
364 -365 0
349 -365 0
365 -366 0
-200 -366 0
357 366 -367 0
20 -368 0
-26 -368 0
28 -368 0
45 -368 0
-93 -368 0
-122 -368 0
-142 -368 0
-146 -368 0
-196 -368 0
-210 -368 0
219 -368 0
-244 -368 0
247 -368 0
249 -368 0
369 -375 0
370 -375 0
371 -375 0
372 -375 0
373 -375 0
374 -375 0
347 -376 0
367 -376 0
375 -376 0
376 -377 0
83 -377 0
369 -378 0
370 -378 0
371 -378 0
372 -378 0
373 -378 0
374 -378 0
347 -379 0
367 -379 0
378 -379 0
379 -380 0
-83 -380 0
381 -382 0
251 -383 0
237 -389 0
251 -392 0
251 -395 0
152 -397 0
248 -397 0
251 -400 0
251 -405 0
251 -408 0
251 -419 0
133 -429 0
251 -430 0
251 -431 0
251 -432 0
251 -433 0
251 -434 0
251 -435 0
251 -436 0
251 -437 0
-45 -438 0
-88 -438 0
142 -438 0
210 -438 0
-237 -438 0
438 -439 0
258 -439 0
439 -440 0
93 -440 0
237 -441 0
88 -441 0
442 -443 0
443 -444 0
-88 -444 0
441 444 -445 0
446 -447 0
447 -448 0
142 -448 0
45 -449 0
-142 -449 0
448 449 -450 0
109 -451 0
445 -453 0
450 -453 0
451 -453 0
452 -453 0
453 -454 0
-93 -454 0
440 454 -455 0
122 -456 0
-122 -457 0
456 457 -458 0
239 -459 0
248 -459 0
458 -460 0
459 -460 0
460 -461 0
34 -461 0
349 -462 0
462 -463 0
248 -463 0
239 -464 0
-248 -464 0
463 464 -465 0
465 -466 0
466 -467 0
122 -467 0
349 -468 0
468 -469 0
248 -469 0
239 -471 0
470 -471 0
471 -472 0
-248 -472 0
469 472 -473 0
473 -474 0
-122 -474 0
467 474 -475 0
475 -476 0
-34 -476 0
461 476 -477 0
-26 -478 0
-83 -478 0
-152 -478 0
196 -478 0
-244 -478 0
479 -482 0
480 -482 0
481 -482 0
477 -483 0
478 -483 0
482 -483 0
483 -484 0
146 -484 0
247 -485 0
152 -485 0
481 -486 0
486 -487 0
-152 -487 0
485 487 -488 0
-26 -489 0
-28 -489 0
-83 -489 0
196 -489 0
490 -491 0
480 -491 0
477 -492 0
488 -492 0
489 -492 0
491 -492 0
492 -493 0
-146 -493 0
484 493 -494 0
-20 -495 0
-46 -495 0
-165 -495 0
203 -495 0
455 -496 0
494 -496 0
495 -496 0
496 -497 0
110 -497 0
251 -498 0
247 -499 0
46 -499 0
481 -500 0
500 -501 0
-46 -501 0
499 501 -502 0
-20 -503 0
-45 -503 0
-88 -503 0
142 -503 0
203 -503 0
210 -503 0
-237 -503 0
502 -504 0
503 -504 0
258 -504 0
504 -505 0
93 -505 0
502 -506 0
446 -506 0
506 -507 0
142 -507 0
45 -508 0
-46 -508 0
508 -509 0
481 -509 0
509 -510 0
-142 -510 0
507 510 -511 0
511 -512 0
210 -512 0
450 -513 0
-46 -513 0
481 -513 0
513 -514 0
-210 -514 0
512 514 -515 0
-20 -516 0
445 -517 0
516 -517 0
517 -518 0
203 -518 0
88 -519 0
237 -519 0
519 -522 0
520 -522 0
521 -522 0
522 -523 0
-203 -523 0
518 523 -524 0
515 -525 0
524 -525 0
109 -525 0
525 -526 0
-93 -526 0
505 526 -527 0
527 -528 0
498 528 -529 0
-165 -530 0
196 -530 0
370 -531 0
531 -532 0
-196 -532 0
530 532 -533 0
26 -534 0
28 -534 0
-219 -534 0
477 -536 0
533 -536 0
534 -536 0
535 -536 0
536 -537 0
83 -537 0
-219 -538 0
26 -538 0
480 -539 0
539 -540 0
-26 -540 0
538 540 -541 0
-165 -542 0
196 -542 0
541 -543 0
477 -543 0
542 -543 0
543 -544 0
479 -544 0
544 -545 0
-83 -545 0
537 545 -546 0
-152 -547 0
-244 -547 0
529 -548 0
546 -548 0
547 -548 0
548 -549 0
146 -549 0
247 -550 0
295 -550 0
550 -551 0
152 -551 0
502 -552 0
-152 -552 0
551 552 -553 0
553 -554 0
503 -554 0
258 -554 0
554 -555 0
93 -555 0
142 -556 0
210 -556 0
247 -556 0
446 -558 0
557 -558 0
556 -559 0
558 -559 0
559 -560 0
46 -560 0
488 -561 0
450 -561 0
561 -562 0
452 -562 0
562 -563 0
-46 -563 0
560 563 -564 0
564 -565 0
524 -565 0
109 -565 0
565 -566 0
-93 -566 0
555 566 -567 0
-26 -568 0
-28 -568 0
-83 -568 0
-165 -568 0
196 -568 0
567 -569 0
477 -569 0
568 -569 0
480 -569 0
569 -570 0
490 -570 0
570 -571 0
-146 -571 0
549 571 -572 0
572 -573 0
-110 -573 0
220 -575 0
576 -577 0
577 -578 0
-220 -578 0
580 -581 0
581 -582 0
90 -582 0
-90 -583 0
-25 -585 0
585 -586 0
140 -586 0
587 -588 0
373 -588 0
588 -589 0
-140 -589 0
-8 -591 0
19 -591 0
-43 -591 0
44 -591 0
-55 -591 0
-62 -591 0
63 -591 0
82 -591 0
-119 -591 0
134 -591 0
-139 -591 0
-161 -591 0
-180 -591 0
183 -591 0
-198 -591 0
200 -591 0
205 -591 0
213 -591 0
214 -591 0
592 -593 0
355 -593 0
261 -593 0
574 -594 0
579 -594 0
584 -594 0
590 -594 0
593 -594 0
251 -596 0
5 -598 0
6 -606 0
251 -613 0
-53 -615 0
251 -618 0
251 -625 0
-133 -635 0
636 -637 0
251 -638 0
-1 0
2 0
-3 0
4 0
-7 0
-9 0
-10 0
11 0
12 0
-13 0
-14 0
15 0
21 0
-23 0
24 0
-30 0
-33 0
35 0
36 0
38 0
-39 0
42 0
47 0
48 0
-49 0
50 0
52 0
-54 0
-57 0
-58 0
64 0
-65 0
-67 0
69 0
-73 0
74 0
77 0
-80 0
85 0
-86 0
-87 0
-91 0
92 0
94 0
-95 0
97 0
99 0
100 0
102 0
-103 0
105 0
108 0
111 0
112 0
-113 0
-118 0
-121 0
-123 0
-124 0
-126 0
-128 0
129 0
130 0
131 0
-136 0
-137 0
138 0
141 0
143 0
-145 0
148 0
-151 0
-153 0
155 0
-156 0
-157 0
-162 0
-163 0
164 0
167 0
-168 0
-169 0
170 0
-172 0
-173 0
177 0
-178 0
179 0
181 0
-182 0
-184 0
186 0
-190 0
191 0
194 0
-197 0
-199 0
201 0
-202 0
204 0
-206 0
207 0
208 0
-209 0
-215 0
217 0
-221 0
-222 0
224 0
-225 0
-226 0
227 0
-228 0
-229 0
-230 0
233 0
-235 0
236 0
241 0
-242 0
232 638 0
-637 639 0
-232 637 0
-634 635 0
-633 634 0
-632 633 0
-630 632 0
-628 629 0
-626 627 0
-624 626 0
-623 624 0
-622 623 0
-620 621 0
68 620 0
-615 616 0
-612 614 0
-611 612 0
-608 609 0
-607 608 0
-606 607 0
-605 607 0
60 604 0
-603 604 0
-602 603 0
-600 601 0
-599 600 0
-171 598 0
-78 598 0
-70 598 0
-597 599 0
-595 597 0
-592 593 0
250 591 0
246 591 0
-245 591 0
-243 591 0
234 591 0
-223 591 0
211 591 0
-189 591 0
-176 591 0
174 591 0
-160 591 0
-158 591 0
154 591 0
-149 591 0
144 591 0
132 591 0
-116 591 0
-104 591 0
98 591 0
-79 591 0
-76 591 0
71 591 0
-66 591 0
-59 591 0
-56 591 0
51 591 0
-590 594 0
-589 590 0
-588 589 0
16 587 0
-140 586 0
-584 594 0
-583 584 0
-582 584 0
-90 582 0
-581 582 0
-579 594 0
-578 579 0
220 578 0
-577 578 0
-573 574 0
-572 573 0
-571 572 0
-566 567 0
-564 565 0
-187 591 0
-563 564 0
-561 562 0
-558 559 0
-557 558 0
-555 567 0
-554 555 0
-553 554 0
-550 551 0
-549 572 0
-548 549 0
-547 548 0
-545 546 0
-115 598 0
-544 545 0
-175 591 0
-541 543 0
-540 541 0
-539 540 0
-537 546 0
-536 537 0
-535 536 0
17 535 0
-26 534 538 0
-533 536 0
-240 591 0
-532 533 0
-531 532 0
-530 533 0
-529 548 0
-528 529 0
-525 526 0
-610 611 0
-524 525 565 0
231 580 0
-523 524 0
-521 522 0
249 520 0
-518 524 0
-517 518 0
-516 517 0
147 625 0
-514 515 0
-512 515 0
-616 617 0
-510 511 0
-609 611 0
-509 510 0
-508 509 0
-614 616 0
-507 511 0
-505 527 0
-501 502 0
-499 502 0
-527 528 0
-106 498 0
-110 497 0
-496 497 0
-495 496 0
-494 496 0
-493 494 0
-491 492 0
-244 490 0
-489 492 0
-488 492 561 0
-487 488 0
-486 487 0
-485 488 0
-482 483 0
127 591 0
-481 482 486 500 509 513 0
27 591 0
-403 404 0
-621 622 0
-219 368 480 0
-216 355 0
116 368 0
-323 326 0
-410 411 0
-468 469 0
-401 402 0
-180 269 0
-260 264 0
-174 368 0
-315 316 0
-464 465 0
-575 579 0
66 368 0
-159 368 0
-267 268 0
56 368 0
75 592 0
-377 381 0
-368 376 379 0
-45 368 446 449 508 0
-503 504 554 0
41 368 0
-459 460 0
-379 380 0
-319 322 0
26 368 478 489 540 568 0
-375 376 0
-560 564 0
-60 425 436 0
-522 523 0
189 368 0
-364 365 0
-363 365 0
-362 363 0
109 258 0
-361 362 0
-211 368 0
-359 360 0
-344 345 0
93 368 454 526 566 0
-412 413 0
-587 588 0
-357 367 0
-356 357 0
237 438 442 503 0
-355 356 593 0
216 355 363 0
-353 354 0
-416 417 0
140 368 589 0
-351 352 0
-198 310 343 0
-349 350 365 462 468 0
-6 280 283 296 606 0
-239 348 349 459 464 471 0
-347 376 379 0
119 346 591 0
-212 368 0
-502 504 506 552 0
31 368 0
82 336 0
-552 553 0
-591 594 0
5 283 297 0
-238 255 433 0
-631 632 0
-316 318 0
-543 544 0
115 368 0
-5 282 294 598 0
46 285 293 295 330 495 501 508 513 563 0
-562 563 0
-442 443 0
-427 428 0
-311 312 0
-280 281 293 0
205 267 317 0
-265 268 0
175 368 0
-32 591 0
-83 377 537 0
-330 331 0
-268 309 345 0
44 353 361 0
-458 460 0
-348 352 0
-279 285 331 0
-452 453 562 0
-484 494 0
-264 265 0
-585 586 0
-71 368 0
-556 559 0
-63 276 591 0
-282 284 0
-293 294 0
-81 576 0
-272 273 0
-308 309 312 0
-474 475 0
-568 569 0
-119 342 0
-283 284 0
-441 445 0
203 308 325 343 523 0
-506 507 0
214 271 0
-122 456 467 0
-297 298 0
8 339 591 0
193 591 0
-350 351 0
-546 548 0
117 259 261 311 0
-593 594 0
110 368 573 0
-203 308 323 495 503 518 0
-214 269 271 591 0
-88 307 311 319 324 343 441 519 0
180 273 287 591 0
161 263 266 328 591 0
-61 354 358 361 591 0
-29 368 0
-387 388 0
-312 313 0
-109 258 262 266 319 324 451 525 565 0
-325 326 0
-367 376 379 0
-278 279 0
-439 440 0
-341 342 0
88 321 438 444 503 0
-192 257 595 0
-479 482 544 0
-276 277 290 0
-286 301 0
63 275 276 287 0
104 368 0
-317 318 0
-314 329 0
213 300 0
-277 278 0
-443 444 0
-132 368 0
-262 263 0
-154 368 0
-275 279 0
-120 252 430 0
-329 331 0
-271 272 288 0
-144 368 0
-343 345 0
-413 414 0
239 349 0
-358 359 0
-269 274 0
-307 309 0
-475 476 0
55 278 291 591 0
-421 422 0
34 351 364 476 0
-366 367 0
-292 299 0
-274 285 290 331 0
-258 259 313 320 439 504 554 0
53 369 615 0
200 366 0
-461 477 0
-161 260 314 0
-365 366 0
-295 296 550 0
-117 261 266 317 0
-570 571 0
-346 347 0
-259 260 0
-476 477 0
90 368 583 0
-183 374 591 0
240 397 0
-586 590 0
-477 483 492 536 543 569 0
-266 267 0
83 380 478 489 545 568 0
-218 368 0
-284 285 331 0
-444 445 0
-354 356 0
218 591 0
-515 525 0
-285 286 0
-294 298 0
-213 286 330 591 0
-287 288 0
-446 447 506 558 0
-305 306 0
-360 362 0
-289 292 0
188 405 618 0
-604 605 0
-210 438 452 503 512 556 0
-43 304 343 0
-290 291 0
-46 295 499 560 0
-306 309 0
-296 297 0
78 368 0
-298 299 0
-193 368 0
-55 275 289 0
-376 377 0
-299 300 0
157 421 631 0
-300 301 0
-318 327 0
37 368 0
-301 309 345 0
-490 491 570 0
-166 253 0
-20 368 521 0
-320 321 0
-322 323 0
-237 389 441 442 519 0
70 368 0
-559 560 0
62 302 305 330 591 0
59 368 0
-291 292 0
61 358 0
-28 368 479 534 0
-195 256 0
-415 416 0
-334 335 0
-135 394 0
-302 303 344 0
-114 254 431 0
-303 304 0
-304 306 0
122 368 457 474 0
40 368 0
6 280 0
43 305 330 591 0
-8 338 343 0
-324 325 0
192 387 596 0
-407 409 0
-327 328 0
-338 340 0
-335 341 0
-440 455 0
-313 314 0
-339 340 0
-409 411 0
-454 455 0
-326 327 0
139 372 591 0
-127 368 0
-288 289 0
219 480 534 538 0
-18 591 0
-340 341 0
-411 412 0
-337 338 0
-455 496 0
-328 329 0
-331 333 0
-134 332 591 0
-538 541 0
-332 333 0
-342 347 0
198 334 591 0
-273 274 0
142 368 449 510 0
146 368 493 571 0
-619 620 0
149 368 0
-150 368 0
158 368 0
160 368 0
-580 581 0
-472 473 0
-68 421 434 0
-420 422 0
171 368 0
-542 543 0
176 368 0
-551 553 0
187 368 0
-336 337 344 0
-389 390 0
-372 375 378 0
196 368 532 0
32 368 0
-519 522 0
-423 424 0
-107 432 0
-37 591 0
-40 591 0
-500 501 0
210 368 452 514 0
-220 368 575 0
-627 628 0
223 368 0
22 613 0
-526 527 0
-234 368 0
-469 473 0
243 368 0
-381 382 0
-310 335 0
244 368 478 490 547 0
-62 302 0
-449 450 0
28 479 489 568 0
245 368 0
-246 368 0
-247 368 481 485 499 550 556 0
-250 368 0
-333 334 0
-53 369 0
-370 375 378 531 0
-165 370 0
-19 371 591 0
165 370 495 530 542 568 0
19 371 0
-601 603 0
-139 372 0
-574 594 0
25 373 585 0
-567 569 0
-373 375 378 588 0
183 374 0
-345 346 0
-374 375 378 0
-594 595 0
-378 379 0
-380 381 0
-425 426 0
-309 310 0
-101 382 437 0
-565 566 0
-478 483 0
-382 384 0
101 383 600 0
-25 373 0
-41 591 0
-384 386 0
-371 375 378 0
18 385 0
89 419 0
-492 493 0
-352 354 0
-629 630 0
-428 429 0
-483 484 0
-520 522 0
-424 426 0
-418 420 0
-385 386 0
-386 387 0
-388 390 0
-513 514 0
-27 389 0
-205 265 311 316 591 0
-261 262 315 593 0
-463 465 0
76 389 0
29 615 0
-617 619 0
-511 512 0
86 410 610 0
-241 389 602 0
-390 391 0
-248 397 459 463 469 0
-391 393 0
-404 406 0
212 591 0
-393 394 0
-504 505 0
-394 396 0
135 395 591 0
84 392 0
-396 398 0
79 397 0
-152 397 485 551 557 0
-397 398 0
-398 399 0
-185 399 0
-146 484 549 0
-399 401 0
185 400 591 0
-93 440 505 555 0
-11 368 606 0
-402 403 0
150 591 0
-406 407 0
96 408 0
-51 410 0
-263 264 0
-473 474 0
-457 458 0
-369 375 378 0
-453 454 0
-281 282 0
-34 348 364 461 0
-598 599 0
-534 536 0
-414 415 0
-417 418 0
-270 272 277 281 303 315 320 337 350 359 443 447 462 486 500 531 539 577 581 588 0
-98 389 0
159 591 0
-422 423 0
-426 427 0
-321 322 0
45 438 446 503 0
-125 435 0
-31 598 0
-82 336 339 591 0
-142 438 448 503 507 556 0
-438 439 0
-445 453 517 0
-447 448 0
-448 450 0
-450 453 513 561 0
-451 453 0
-569 570 0
-456 458 0
-460 461 0
-462 463 0
248 464 472 0
-465 466 0
-576 577 0
-466 467 0
-467 475 0
-72 470 0
-196 478 489 530 542 568 0
-470 471 0
-471 472 0
152 478 487 547 552 557 0
-480 482 491 539 569 0
247 481 0
